model.MPS
NAME RRP
OBJSENSE MAX
ROWS
 N  OBJ
 E  R0      
 E  R1      
 E  R2      
 E  R3      
 E  R4      
 E  R5      
 E  R6      
 E  R7      
 E  R8      
 E  R9      
 E  R10     
 E  R11     
 E  R12     
 E  R13     
 E  R14     
 E  R15     
 E  R16     
 E  R17     
 E  R18     
 E  R19     
 E  R20     
 E  R21     
 L  R22     
 L  R23     
 L  R24     
 L  R25     
 E  R26     
 E  R27     
 E  R28     
 E  R29     
 E  R30     
 L  R31     
 L  R32     
 L  R33     
 L  R34     
 L  R35     
 L  R36     
 L  R37     
 L  R38     
 L  R39     
 L  R40     
 L  R41     
 L  R42     
 L  R43     
 L  R44     
 L  R45     
 L  R46     
 L  R47     
 L  R48     
 L  R49     
 L  R50     
 L  R51     
 L  R52     
 L  R53     
 L  R54     
 L  R55     
 L  R56     
 L  R57     
 L  R58     
 L  R59     
 L  R60     
 L  R61     
 L  R62     
 L  R63     
 L  R64     
 L  R65     
 L  R66     
 L  R67     
 L  R68     
 L  R69     
 L  R70     
 L  R71     
 L  R72     
 L  R73     
 L  R74     
 L  R75     
 L  R76     
 L  R77     
 L  R78     
 G  R79     
 G  R80     
 G  R81     
 G  R82     
 G  R83     
 G  R84     
 G  R85     
 G  R86     
 G  R87     
 G  R88     
 G  R89     
 G  R90     
 G  R91     
 G  R92     
 G  R93     
 G  R94     
 G  R95     
 G  R96     
 G  R97     
 G  R98     
 G  R99     
 G  R100    
 G  R101    
 G  R102    
 G  R103    
 G  R104    
 G  R105    
 G  R106    
 G  R107    
 G  R108    
 G  R109    
 G  R110    
 L  R111    
 L  R112    
 L  R113    
 L  R114    
 L  R115    
 L  R116    
 L  R117    
 L  R118    
 G  R119    
 G  R120    
 G  R121    
 G  R122    
 G  R123    
 G  R124    
 G  R125    
 G  R126    
 L  R127    
 L  R128    
 G  R129    
 G  R130    
 G  R131    
 G  R132    
 L  R133    
 L  R134    
 G  R135    
 L  R136    
 L  R137    
 L  R138    
 L  R139    
 L  R140    
 L  R141    
 L  R142    
 L  R143    
 L  R144    
 L  R145    
 G  R146    
 G  R147    
 L  R148    
COLUMNS
    MARKER    'MARKER'                 'INTORG'
    x_kimjn[0,1,0,1,0]  OBJ       0
    x_kimjn[0,1,0,2,2]  R2        -1
    x_kimjn[0,1,0,2,2]  R3        1
    x_kimjn[0,1,0,2,2]  R12       1
    x_kimjn[0,1,0,2,2]  R27       1
    x_kimjn[0,1,0,2,2]  R47       517.5
    x_kimjn[0,1,0,2,2]  R79       -517.5
    x_kimjn[0,1,0,2,9]  R2        -1
    x_kimjn[0,1,0,2,9]  R4        1
    x_kimjn[0,1,0,2,9]  R12       1
    x_kimjn[0,1,0,2,9]  R27       1
    x_kimjn[0,1,0,2,9]  R48       517.5
    x_kimjn[0,1,0,2,9]  R80       -517.5
    x_kimjn[0,1,0,2,12]  R2        -1
    x_kimjn[0,1,0,2,12]  R5        1
    x_kimjn[0,1,0,2,12]  R12       1
    x_kimjn[0,1,0,2,12]  R27       1
    x_kimjn[0,1,0,2,12]  R49       517.5
    x_kimjn[0,1,0,2,12]  R81       -517.5
    x_kimjn[0,1,0,2,22]  R2        -1
    x_kimjn[0,1,0,2,22]  R6        1
    x_kimjn[0,1,0,2,22]  R12       1
    x_kimjn[0,1,0,2,22]  R27       1
    x_kimjn[0,1,0,2,22]  R50       517.5
    x_kimjn[0,1,0,2,22]  R82       -517.5
    x_kimjn[0,1,0,2,6]  R2        -1
    x_kimjn[0,1,0,2,6]  R7        1
    x_kimjn[0,1,0,2,6]  R12       1
    x_kimjn[0,1,0,2,6]  R27       1
    x_kimjn[0,1,0,2,6]  R51       517.5
    x_kimjn[0,1,0,2,6]  R83       -517.5
    x_kimjn[0,1,0,2,7]  R2        -1
    x_kimjn[0,1,0,2,7]  R8        1
    x_kimjn[0,1,0,2,7]  R12       1
    x_kimjn[0,1,0,2,7]  R27       1
    x_kimjn[0,1,0,2,7]  R52       517.5
    x_kimjn[0,1,0,2,7]  R84       -517.5
    x_kimjn[0,1,0,2,0]  R2        -1
    x_kimjn[0,1,0,2,0]  R9        1
    x_kimjn[0,1,0,2,0]  R12       1
    x_kimjn[0,1,0,2,0]  R53       517.5
    x_kimjn[0,1,0,2,0]  R85       -517.5
    x_kimjn[0,1,0,3,0]  R2        -1
    x_kimjn[0,1,0,3,0]  R10       -1
    x_kimjn[0,1,0,3,0]  R12       1
    x_kimjn[0,1,0,3,0]  R29       1
    x_kimjn[0,1,0,3,0]  R54       517.5
    x_kimjn[0,1,0,3,0]  R86       -517.5
    x_kimjn[0,1,0,4,0]  R2        -1
    x_kimjn[0,1,0,4,0]  R11       -1
    x_kimjn[0,1,0,4,0]  R12       1
    x_kimjn[0,1,0,4,0]  R30       1
    x_kimjn[0,1,0,4,0]  R55       517.5
    x_kimjn[0,1,0,4,0]  R87       -517.5
    x_kimjn[0,2,2,1,0]  R2        1
    x_kimjn[0,2,2,1,0]  R3        -1
    x_kimjn[0,2,2,1,0]  R13       1
    x_kimjn[0,2,2,1,0]  R30       1
    x_kimjn[0,2,2,1,0]  R56       517.5
    x_kimjn[0,2,2,1,0]  R88       -517.5
    x_kimjn[0,2,2,2,2]  OBJ       0
    x_kimjn[0,2,2,2,9]  OBJ       0
    x_kimjn[0,2,2,2,12]  OBJ       0
    x_kimjn[0,2,2,2,22]  OBJ       0
    x_kimjn[0,2,2,2,6]  OBJ       0
    x_kimjn[0,2,2,2,7]  OBJ       0
    x_kimjn[0,2,2,2,0]  OBJ       0
    x_kimjn[0,2,2,3,0]  R3        -1
    x_kimjn[0,2,2,3,0]  R10       -1
    x_kimjn[0,2,2,3,0]  R13       1
    x_kimjn[0,2,2,3,0]  R29       1
    x_kimjn[0,2,2,3,0]  R30       1
    x_kimjn[0,2,2,3,0]  R57       517.5
    x_kimjn[0,2,2,3,0]  R89       -517.5
    x_kimjn[0,2,2,4,0]  R3        -1
    x_kimjn[0,2,2,4,0]  R11       -1
    x_kimjn[0,2,2,4,0]  R13       1
    x_kimjn[0,2,2,4,0]  R30       2
    x_kimjn[0,2,2,4,0]  R58       517.5
    x_kimjn[0,2,2,4,0]  R90       -517.5
    x_kimjn[0,2,9,1,0]  R2        1
    x_kimjn[0,2,9,1,0]  R4        -1
    x_kimjn[0,2,9,1,0]  R14       1
    x_kimjn[0,2,9,1,0]  R30       1
    x_kimjn[0,2,9,1,0]  R59       517.5
    x_kimjn[0,2,9,1,0]  R91       -517.5
    x_kimjn[0,2,9,2,2]  OBJ       0
    x_kimjn[0,2,9,2,9]  OBJ       0
    x_kimjn[0,2,9,2,12]  OBJ       0
    x_kimjn[0,2,9,2,22]  OBJ       0
    x_kimjn[0,2,9,2,6]  OBJ       0
    x_kimjn[0,2,9,2,7]  OBJ       0
    x_kimjn[0,2,9,2,0]  OBJ       0
    x_kimjn[0,2,9,3,0]  R4        -1
    x_kimjn[0,2,9,3,0]  R10       -1
    x_kimjn[0,2,9,3,0]  R14       1
    x_kimjn[0,2,9,3,0]  R29       1
    x_kimjn[0,2,9,3,0]  R30       1
    x_kimjn[0,2,9,3,0]  R60       517.5
    x_kimjn[0,2,9,3,0]  R92       -517.5
    x_kimjn[0,2,9,4,0]  R4        -1
    x_kimjn[0,2,9,4,0]  R11       -1
    x_kimjn[0,2,9,4,0]  R14       1
    x_kimjn[0,2,9,4,0]  R30       2
    x_kimjn[0,2,9,4,0]  R61       517.5
    x_kimjn[0,2,9,4,0]  R93       -517.5
    x_kimjn[0,2,12,1,0]  R2        1
    x_kimjn[0,2,12,1,0]  R5        -1
    x_kimjn[0,2,12,1,0]  R15       1
    x_kimjn[0,2,12,1,0]  R30       1
    x_kimjn[0,2,12,1,0]  R62       517.5
    x_kimjn[0,2,12,1,0]  R94       -517.5
    x_kimjn[0,2,12,2,2]  OBJ       0
    x_kimjn[0,2,12,2,9]  OBJ       0
    x_kimjn[0,2,12,2,12]  OBJ       0
    x_kimjn[0,2,12,2,22]  OBJ       0
    x_kimjn[0,2,12,2,6]  OBJ       0
    x_kimjn[0,2,12,2,7]  OBJ       0
    x_kimjn[0,2,12,2,0]  OBJ       0
    x_kimjn[0,2,12,3,0]  R5        -1
    x_kimjn[0,2,12,3,0]  R10       -1
    x_kimjn[0,2,12,3,0]  R15       1
    x_kimjn[0,2,12,3,0]  R29       1
    x_kimjn[0,2,12,3,0]  R30       1
    x_kimjn[0,2,12,3,0]  R63       517.5
    x_kimjn[0,2,12,3,0]  R95       -517.5
    x_kimjn[0,2,12,4,0]  R5        -1
    x_kimjn[0,2,12,4,0]  R11       -1
    x_kimjn[0,2,12,4,0]  R15       1
    x_kimjn[0,2,12,4,0]  R30       2
    x_kimjn[0,2,12,4,0]  R64       517.5
    x_kimjn[0,2,12,4,0]  R96       -517.5
    x_kimjn[0,2,22,1,0]  R2        1
    x_kimjn[0,2,22,1,0]  R6        -1
    x_kimjn[0,2,22,1,0]  R16       1
    x_kimjn[0,2,22,1,0]  R30       1
    x_kimjn[0,2,22,1,0]  R65       517.5
    x_kimjn[0,2,22,1,0]  R97       -517.5
    x_kimjn[0,2,22,2,2]  OBJ       0
    x_kimjn[0,2,22,2,9]  OBJ       0
    x_kimjn[0,2,22,2,12]  OBJ       0
    x_kimjn[0,2,22,2,22]  OBJ       0
    x_kimjn[0,2,22,2,6]  OBJ       0
    x_kimjn[0,2,22,2,7]  OBJ       0
    x_kimjn[0,2,22,2,0]  OBJ       0
    x_kimjn[0,2,22,3,0]  R6        -1
    x_kimjn[0,2,22,3,0]  R10       -1
    x_kimjn[0,2,22,3,0]  R16       1
    x_kimjn[0,2,22,3,0]  R29       1
    x_kimjn[0,2,22,3,0]  R30       1
    x_kimjn[0,2,22,3,0]  R66       517.5
    x_kimjn[0,2,22,3,0]  R98       -517.5
    x_kimjn[0,2,22,4,0]  R6        -1
    x_kimjn[0,2,22,4,0]  R11       -1
    x_kimjn[0,2,22,4,0]  R16       1
    x_kimjn[0,2,22,4,0]  R30       2
    x_kimjn[0,2,22,4,0]  R67       517.5
    x_kimjn[0,2,22,4,0]  R99       -517.5
    x_kimjn[0,2,6,1,0]  R2        1
    x_kimjn[0,2,6,1,0]  R7        -1
    x_kimjn[0,2,6,1,0]  R17       1
    x_kimjn[0,2,6,1,0]  R30       1
    x_kimjn[0,2,6,1,0]  R68       517.5
    x_kimjn[0,2,6,1,0]  R100      -517.5
    x_kimjn[0,2,6,2,2]  OBJ       0
    x_kimjn[0,2,6,2,9]  OBJ       0
    x_kimjn[0,2,6,2,12]  OBJ       0
    x_kimjn[0,2,6,2,22]  OBJ       0
    x_kimjn[0,2,6,2,6]  OBJ       0
    x_kimjn[0,2,6,2,7]  OBJ       0
    x_kimjn[0,2,6,2,0]  OBJ       0
    x_kimjn[0,2,6,3,0]  R7        -1
    x_kimjn[0,2,6,3,0]  R10       -1
    x_kimjn[0,2,6,3,0]  R17       1
    x_kimjn[0,2,6,3,0]  R29       1
    x_kimjn[0,2,6,3,0]  R30       1
    x_kimjn[0,2,6,3,0]  R69       517.5
    x_kimjn[0,2,6,3,0]  R101      -517.5
    x_kimjn[0,2,6,4,0]  R7        -1
    x_kimjn[0,2,6,4,0]  R11       -1
    x_kimjn[0,2,6,4,0]  R17       1
    x_kimjn[0,2,6,4,0]  R30       2
    x_kimjn[0,2,6,4,0]  R70       517.5
    x_kimjn[0,2,6,4,0]  R102      -517.5
    x_kimjn[0,2,7,1,0]  R2        1
    x_kimjn[0,2,7,1,0]  R8        -1
    x_kimjn[0,2,7,1,0]  R18       1
    x_kimjn[0,2,7,1,0]  R30       1
    x_kimjn[0,2,7,1,0]  R71       517.5
    x_kimjn[0,2,7,1,0]  R103      -517.5
    x_kimjn[0,2,7,2,2]  OBJ       0
    x_kimjn[0,2,7,2,9]  OBJ       0
    x_kimjn[0,2,7,2,12]  OBJ       0
    x_kimjn[0,2,7,2,22]  OBJ       0
    x_kimjn[0,2,7,2,6]  OBJ       0
    x_kimjn[0,2,7,2,7]  OBJ       0
    x_kimjn[0,2,7,2,0]  OBJ       0
    x_kimjn[0,2,7,3,0]  R8        -1
    x_kimjn[0,2,7,3,0]  R10       -1
    x_kimjn[0,2,7,3,0]  R18       1
    x_kimjn[0,2,7,3,0]  R29       1
    x_kimjn[0,2,7,3,0]  R30       1
    x_kimjn[0,2,7,3,0]  R72       517.5
    x_kimjn[0,2,7,3,0]  R104      -517.5
    x_kimjn[0,2,7,4,0]  R8        -1
    x_kimjn[0,2,7,4,0]  R11       -1
    x_kimjn[0,2,7,4,0]  R18       1
    x_kimjn[0,2,7,4,0]  R30       2
    x_kimjn[0,2,7,4,0]  R73       517.5
    x_kimjn[0,2,7,4,0]  R105      -517.5
    x_kimjn[0,2,0,1,0]  R2        1
    x_kimjn[0,2,0,1,0]  R9        -1
    x_kimjn[0,2,0,1,0]  R19       1
    x_kimjn[0,2,0,1,0]  R74       517.5
    x_kimjn[0,2,0,1,0]  R106      -517.5
    x_kimjn[0,2,0,2,2]  OBJ       0
    x_kimjn[0,2,0,2,9]  OBJ       0
    x_kimjn[0,2,0,2,12]  OBJ       0
    x_kimjn[0,2,0,2,22]  OBJ       0
    x_kimjn[0,2,0,2,6]  OBJ       0
    x_kimjn[0,2,0,2,7]  OBJ       0
    x_kimjn[0,2,0,2,0]  OBJ       0
    x_kimjn[0,2,0,3,0]  R9        -1
    x_kimjn[0,2,0,3,0]  R10       -1
    x_kimjn[0,2,0,3,0]  R19       1
    x_kimjn[0,2,0,3,0]  R29       1
    x_kimjn[0,2,0,3,0]  R75       517.5
    x_kimjn[0,2,0,3,0]  R107      -517.5
    x_kimjn[0,2,0,4,0]  R9        -1
    x_kimjn[0,2,0,4,0]  R11       -1
    x_kimjn[0,2,0,4,0]  R19       1
    x_kimjn[0,2,0,4,0]  R30       1
    x_kimjn[0,2,0,4,0]  R76       517.5
    x_kimjn[0,2,0,4,0]  R108      -517.5
    x_kimjn[0,3,0,1,0]  OBJ       0
    x_kimjn[0,3,0,2,2]  OBJ       0
    x_kimjn[0,3,0,2,9]  OBJ       0
    x_kimjn[0,3,0,2,12]  OBJ       0
    x_kimjn[0,3,0,2,22]  OBJ       0
    x_kimjn[0,3,0,2,6]  OBJ       0
    x_kimjn[0,3,0,2,7]  OBJ       0
    x_kimjn[0,3,0,2,0]  OBJ       0
    x_kimjn[0,3,0,3,0]  OBJ       0
    x_kimjn[0,3,0,4,0]  R10       1
    x_kimjn[0,3,0,4,0]  R11       -1
    x_kimjn[0,3,0,4,0]  R20       1
    x_kimjn[0,3,0,4,0]  R30       1
    x_kimjn[0,3,0,4,0]  R77       517.5
    x_kimjn[0,3,0,4,0]  R109      -517.5
    x_kimjn[0,4,0,1,0]  OBJ       0
    x_kimjn[0,4,0,2,2]  OBJ       0
    x_kimjn[0,4,0,2,9]  OBJ       0
    x_kimjn[0,4,0,2,12]  OBJ       0
    x_kimjn[0,4,0,2,22]  OBJ       0
    x_kimjn[0,4,0,2,6]  OBJ       0
    x_kimjn[0,4,0,2,7]  OBJ       0
    x_kimjn[0,4,0,2,0]  OBJ       0
    x_kimjn[0,4,0,3,0]  R10       -1
    x_kimjn[0,4,0,3,0]  R11       1
    x_kimjn[0,4,0,3,0]  R21       1
    x_kimjn[0,4,0,3,0]  R29       1
    x_kimjn[0,4,0,3,0]  R78       517.5
    x_kimjn[0,4,0,3,0]  R110      -517.5
    x_kimjn[0,4,0,4,0]  OBJ       0
    xs_kim[0,1,0]  R0        1
    xs_kim[0,1,0]  R2        1
    xs_kim[0,1,0]  R12       1
    xs_kim[0,1,0]  R111      517.5
    xs_kim[0,1,0]  R119      -517.5
    xs_kim[0,2,2]  R0        1
    xs_kim[0,2,2]  R3        1
    xs_kim[0,2,2]  R13       1
    xs_kim[0,2,2]  R27       1
    xs_kim[0,2,2]  R112      517.5
    xs_kim[0,2,2]  R120      -517.5
    xs_kim[0,2,9]  R0        1
    xs_kim[0,2,9]  R4        1
    xs_kim[0,2,9]  R14       1
    xs_kim[0,2,9]  R27       1
    xs_kim[0,2,9]  R113      517.5
    xs_kim[0,2,9]  R121      -517.5
    xs_kim[0,2,12]  R0        1
    xs_kim[0,2,12]  R5        1
    xs_kim[0,2,12]  R15       1
    xs_kim[0,2,12]  R27       1
    xs_kim[0,2,12]  R114      517.5
    xs_kim[0,2,12]  R122      -517.5
    xs_kim[0,2,22]  R0        1
    xs_kim[0,2,22]  R6        1
    xs_kim[0,2,22]  R16       1
    xs_kim[0,2,22]  R27       1
    xs_kim[0,2,22]  R115      517.5
    xs_kim[0,2,22]  R123      -517.5
    xs_kim[0,2,6]  R0        1
    xs_kim[0,2,6]  R7        1
    xs_kim[0,2,6]  R17       1
    xs_kim[0,2,6]  R27       1
    xs_kim[0,2,6]  R116      517.5
    xs_kim[0,2,6]  R124      -517.5
    xs_kim[0,2,7]  R0        1
    xs_kim[0,2,7]  R8        1
    xs_kim[0,2,7]  R18       1
    xs_kim[0,2,7]  R27       1
    xs_kim[0,2,7]  R117      517.5
    xs_kim[0,2,7]  R125      -517.5
    xs_kim[0,2,0]  R0        1
    xs_kim[0,2,0]  R9        1
    xs_kim[0,2,0]  R19       1
    xs_kim[0,2,0]  R118      517.5
    xs_kim[0,2,0]  R126      -517.5
    xe_kjn[0,3,0]  R1        1
    xe_kjn[0,3,0]  R10       1
    xe_kjn[0,3,0]  R20       1
    xe_kjn[0,3,0]  R127      517.5
    xe_kjn[0,3,0]  R129      -517.5
    xe_kjn[0,4,0]  R1        1
    xe_kjn[0,4,0]  R11       1
    xe_kjn[0,4,0]  R21       1
    xe_kjn[0,4,0]  R128      517.5
    xe_kjn[0,4,0]  R130      -517.5
    xod_k[0]  R0        1
    xod_k[0]  R1        1
    xod_k[0]  R28       1
    y_kim[0,1,0]  R12       -1
    y_kim[0,1,0]  R22       2
    y_kim[0,2,2]  R13       -1
    y_kim[0,2,2]  R23       1
    y_kim[0,2,2]  R140      10
    y_kim[0,2,9]  R14       -1
    y_kim[0,2,9]  R23       1
    y_kim[0,2,9]  R141      6
    y_kim[0,2,12]  R15       -1
    y_kim[0,2,12]  R23       1
    y_kim[0,2,12]  R142      8
    y_kim[0,2,22]  R16       -1
    y_kim[0,2,22]  R23       1
    y_kim[0,2,22]  R143      7
    y_kim[0,2,6]  R17       -1
    y_kim[0,2,6]  R23       1
    y_kim[0,2,6]  R144      10
    y_kim[0,2,7]  R18       -1
    y_kim[0,2,7]  R23       1
    y_kim[0,2,7]  R145      10
    y_kim[0,2,0]  R19       -1
    y_kim[0,2,0]  R23       2
    y_kim[0,3,0]  R20       -1
    y_kim[0,3,0]  R24       2
    y_kim[0,3,0]  R146      -0.1
    y_kim[0,4,0]  R21       -1
    y_kim[0,4,0]  R25       2
    y_kim[0,4,0]  R147      -0.1
    z_ki[0,1]  OBJ       1
    z_ki[0,1]  R26       -1
    z_ki[0,1]  R148      1
    z_ki[0,2]  OBJ       1
    z_ki[0,2]  R27       -1
    z_ki[0,2]  R148      1
    MARKER    'MARKER'                 'INTEND'
    t_ki[0,0,0]  R111      1
    t_ki[0,0,0]  R112      1
    t_ki[0,0,0]  R113      1
    t_ki[0,0,0]  R114      1
    t_ki[0,0,0]  R115      1
    t_ki[0,0,0]  R116      1
    t_ki[0,0,0]  R117      1
    t_ki[0,0,0]  R118      1
    t_ki[0,0,0]  R119      1
    t_ki[0,0,0]  R120      1
    t_ki[0,0,0]  R121      1
    t_ki[0,0,0]  R122      1
    t_ki[0,0,0]  R123      1
    t_ki[0,0,0]  R124      1
    t_ki[0,0,0]  R125      1
    t_ki[0,0,0]  R126      1
    t_ki[0,0,0]  R139      -1
    t_ki[0,1,0]  R31       1
    t_ki[0,1,0]  R32       1
    t_ki[0,1,0]  R47       1
    t_ki[0,1,0]  R48       1
    t_ki[0,1,0]  R49       1
    t_ki[0,1,0]  R50       1
    t_ki[0,1,0]  R51       1
    t_ki[0,1,0]  R52       1
    t_ki[0,1,0]  R53       1
    t_ki[0,1,0]  R54       1
    t_ki[0,1,0]  R55       1
    t_ki[0,1,0]  R56       -1
    t_ki[0,1,0]  R59       -1
    t_ki[0,1,0]  R62       -1
    t_ki[0,1,0]  R65       -1
    t_ki[0,1,0]  R68       -1
    t_ki[0,1,0]  R71       -1
    t_ki[0,1,0]  R74       -1
    t_ki[0,1,0]  R79       1
    t_ki[0,1,0]  R80       1
    t_ki[0,1,0]  R81       1
    t_ki[0,1,0]  R82       1
    t_ki[0,1,0]  R83       1
    t_ki[0,1,0]  R84       1
    t_ki[0,1,0]  R85       1
    t_ki[0,1,0]  R86       1
    t_ki[0,1,0]  R87       1
    t_ki[0,1,0]  R88       -1
    t_ki[0,1,0]  R91       -1
    t_ki[0,1,0]  R94       -1
    t_ki[0,1,0]  R97       -1
    t_ki[0,1,0]  R100      -1
    t_ki[0,1,0]  R103      -1
    t_ki[0,1,0]  R106      -1
    t_ki[0,1,0]  R111      -1
    t_ki[0,1,0]  R119      -1
    t_ki[0,1,0]  R137      -1
    t_ki[0,2,2]  R33       1
    t_ki[0,2,2]  R34       1
    t_ki[0,2,2]  R47       -1
    t_ki[0,2,2]  R56       1
    t_ki[0,2,2]  R57       1
    t_ki[0,2,2]  R58       1
    t_ki[0,2,2]  R79       -1
    t_ki[0,2,2]  R88       1
    t_ki[0,2,2]  R89       1
    t_ki[0,2,2]  R90       1
    t_ki[0,2,2]  R112      -1
    t_ki[0,2,2]  R120      -1
    t_ki[0,2,2]  R140      -1
    t_ki[0,2,9]  R35       1
    t_ki[0,2,9]  R36       1
    t_ki[0,2,9]  R48       -1
    t_ki[0,2,9]  R59       1
    t_ki[0,2,9]  R60       1
    t_ki[0,2,9]  R61       1
    t_ki[0,2,9]  R80       -1
    t_ki[0,2,9]  R91       1
    t_ki[0,2,9]  R92       1
    t_ki[0,2,9]  R93       1
    t_ki[0,2,9]  R113      -1
    t_ki[0,2,9]  R121      -1
    t_ki[0,2,9]  R141      -1
    t_ki[0,2,12]  R37       1
    t_ki[0,2,12]  R38       1
    t_ki[0,2,12]  R49       -1
    t_ki[0,2,12]  R62       1
    t_ki[0,2,12]  R63       1
    t_ki[0,2,12]  R64       1
    t_ki[0,2,12]  R81       -1
    t_ki[0,2,12]  R94       1
    t_ki[0,2,12]  R95       1
    t_ki[0,2,12]  R96       1
    t_ki[0,2,12]  R114      -1
    t_ki[0,2,12]  R122      -1
    t_ki[0,2,12]  R142      -1
    t_ki[0,2,22]  R39       1
    t_ki[0,2,22]  R40       1
    t_ki[0,2,22]  R50       -1
    t_ki[0,2,22]  R65       1
    t_ki[0,2,22]  R66       1
    t_ki[0,2,22]  R67       1
    t_ki[0,2,22]  R82       -1
    t_ki[0,2,22]  R97       1
    t_ki[0,2,22]  R98       1
    t_ki[0,2,22]  R99       1
    t_ki[0,2,22]  R115      -1
    t_ki[0,2,22]  R123      -1
    t_ki[0,2,22]  R143      -1
    t_ki[0,2,6]  R41       1
    t_ki[0,2,6]  R42       1
    t_ki[0,2,6]  R51       -1
    t_ki[0,2,6]  R68       1
    t_ki[0,2,6]  R69       1
    t_ki[0,2,6]  R70       1
    t_ki[0,2,6]  R83       -1
    t_ki[0,2,6]  R100      1
    t_ki[0,2,6]  R101      1
    t_ki[0,2,6]  R102      1
    t_ki[0,2,6]  R116      -1
    t_ki[0,2,6]  R124      -1
    t_ki[0,2,6]  R144      -1
    t_ki[0,2,7]  R43       1
    t_ki[0,2,7]  R44       1
    t_ki[0,2,7]  R52       -1
    t_ki[0,2,7]  R71       1
    t_ki[0,2,7]  R72       1
    t_ki[0,2,7]  R73       1
    t_ki[0,2,7]  R84       -1
    t_ki[0,2,7]  R103      1
    t_ki[0,2,7]  R104      1
    t_ki[0,2,7]  R105      1
    t_ki[0,2,7]  R117      -1
    t_ki[0,2,7]  R125      -1
    t_ki[0,2,7]  R145      -1
    t_ki[0,2,0]  R45       1
    t_ki[0,2,0]  R46       1
    t_ki[0,2,0]  R53       -1
    t_ki[0,2,0]  R74       1
    t_ki[0,2,0]  R75       1
    t_ki[0,2,0]  R76       1
    t_ki[0,2,0]  R85       -1
    t_ki[0,2,0]  R106      1
    t_ki[0,2,0]  R107      1
    t_ki[0,2,0]  R108      1
    t_ki[0,2,0]  R118      -1
    t_ki[0,2,0]  R126      -1
    t_ki[0,2,0]  R138      -1
    t_ki[0,2,0]  R140      1
    t_ki[0,2,0]  R141      1
    t_ki[0,2,0]  R142      1
    t_ki[0,2,0]  R143      1
    t_ki[0,2,0]  R144      1
    t_ki[0,2,0]  R145      1
    t_ki[0,3,0]  R31       -1
    t_ki[0,3,0]  R32       -1
    t_ki[0,3,0]  R54       -1
    t_ki[0,3,0]  R57       -1
    t_ki[0,3,0]  R60       -1
    t_ki[0,3,0]  R63       -1
    t_ki[0,3,0]  R66       -1
    t_ki[0,3,0]  R69       -1
    t_ki[0,3,0]  R72       -1
    t_ki[0,3,0]  R75       -1
    t_ki[0,3,0]  R77       1
    t_ki[0,3,0]  R78       -1
    t_ki[0,3,0]  R86       -1
    t_ki[0,3,0]  R89       -1
    t_ki[0,3,0]  R92       -1
    t_ki[0,3,0]  R95       -1
    t_ki[0,3,0]  R98       -1
    t_ki[0,3,0]  R101      -1
    t_ki[0,3,0]  R104      -1
    t_ki[0,3,0]  R107      -1
    t_ki[0,3,0]  R109      1
    t_ki[0,3,0]  R110      -1
    t_ki[0,3,0]  R127      1
    t_ki[0,3,0]  R129      1
    t_ki[0,3,0]  R131      1
    t_ki[0,3,0]  R133      1
    t_ki[0,3,0]  R137      1
    t_ki[0,4,0]  R33       -1
    t_ki[0,4,0]  R34       -1
    t_ki[0,4,0]  R35       -1
    t_ki[0,4,0]  R36       -1
    t_ki[0,4,0]  R37       -1
    t_ki[0,4,0]  R38       -1
    t_ki[0,4,0]  R39       -1
    t_ki[0,4,0]  R40       -1
    t_ki[0,4,0]  R41       -1
    t_ki[0,4,0]  R42       -1
    t_ki[0,4,0]  R43       -1
    t_ki[0,4,0]  R44       -1
    t_ki[0,4,0]  R45       -1
    t_ki[0,4,0]  R46       -1
    t_ki[0,4,0]  R55       -1
    t_ki[0,4,0]  R58       -1
    t_ki[0,4,0]  R61       -1
    t_ki[0,4,0]  R64       -1
    t_ki[0,4,0]  R67       -1
    t_ki[0,4,0]  R70       -1
    t_ki[0,4,0]  R73       -1
    t_ki[0,4,0]  R76       -1
    t_ki[0,4,0]  R77       -1
    t_ki[0,4,0]  R78       1
    t_ki[0,4,0]  R87       -1
    t_ki[0,4,0]  R90       -1
    t_ki[0,4,0]  R93       -1
    t_ki[0,4,0]  R96       -1
    t_ki[0,4,0]  R99       -1
    t_ki[0,4,0]  R102      -1
    t_ki[0,4,0]  R105      -1
    t_ki[0,4,0]  R108      -1
    t_ki[0,4,0]  R109      -1
    t_ki[0,4,0]  R110      1
    t_ki[0,4,0]  R128      1
    t_ki[0,4,0]  R130      1
    t_ki[0,4,0]  R132      1
    t_ki[0,4,0]  R134      1
    t_ki[0,4,0]  R138      1
    t_ki[0,5,0]  R127      -1
    t_ki[0,5,0]  R128      -1
    t_ki[0,5,0]  R129      -1
    t_ki[0,5,0]  R130      -1
    t_ki[0,5,0]  R135      1
    t_ki[0,5,0]  R136      1
    t_ki[0,5,0]  R139      1
RHS
    RHS1      R0        1
    RHS1      R1        1
    RHS1      R22       1
    RHS1      R23       1
    RHS1      R24       1
    RHS1      R25       1
    RHS1      R31       -22
    RHS1      R32       -22
    RHS1      R33       -25
    RHS1      R34       -25
    RHS1      R35       -22
    RHS1      R36       -22
    RHS1      R37       -18
    RHS1      R38       -18
    RHS1      R39       -22
    RHS1      R40       -22
    RHS1      R41       -23
    RHS1      R42       -23
    RHS1      R43       -22
    RHS1      R44       -22
    RHS1      R45       -26
    RHS1      R46       -26
    RHS1      R47       499.5
    RHS1      R48       502.5
    RHS1      R49       505.5
    RHS1      R50       502.5
    RHS1      R51       500.5
    RHS1      R52       502.5
    RHS1      R53       499.5
    RHS1      R54       495.5
    RHS1      R55       495.5
    RHS1      R56       499.5
    RHS1      R57       492.5
    RHS1      R58       492.5
    RHS1      R59       502.5
    RHS1      R60       495.5
    RHS1      R61       495.5
    RHS1      R62       505.5
    RHS1      R63       499.5
    RHS1      R64       499.5
    RHS1      R65       501.5
    RHS1      R66       495.5
    RHS1      R67       495.5
    RHS1      R68       500.5
    RHS1      R69       494.5
    RHS1      R70       494.5
    RHS1      R71       501.5
    RHS1      R72       495.5
    RHS1      R73       495.5
    RHS1      R74       498.5
    RHS1      R75       491.5
    RHS1      R76       491.5
    RHS1      R77       504.5
    RHS1      R78       502.5
    RHS1      R79       -535.5
    RHS1      R80       -532.5
    RHS1      R81       -529.5
    RHS1      R82       -532.5
    RHS1      R83       -534.5
    RHS1      R84       -532.5
    RHS1      R85       -535.5
    RHS1      R86       -539.5
    RHS1      R87       -539.5
    RHS1      R88       -535.5
    RHS1      R89       -542.5
    RHS1      R90       -542.5
    RHS1      R91       -532.5
    RHS1      R92       -539.5
    RHS1      R93       -539.5
    RHS1      R94       -529.5
    RHS1      R95       -535.5
    RHS1      R96       -535.5
    RHS1      R97       -533.5
    RHS1      R98       -539.5
    RHS1      R99       -539.5
    RHS1      R100      -534.5
    RHS1      R101      -540.5
    RHS1      R102      -540.5
    RHS1      R103      -533.5
    RHS1      R104      -539.5
    RHS1      R105      -539.5
    RHS1      R106      -536.5
    RHS1      R107      -543.5
    RHS1      R108      -543.5
    RHS1      R109      -530.5
    RHS1      R110      -532.5
    RHS1      R111      456.5
    RHS1      R112      471.5
    RHS1      R113      467.5
    RHS1      R114      467.5
    RHS1      R115      469.5
    RHS1      R116      464.5
    RHS1      R117      464.5
    RHS1      R118      463.5
    RHS1      R119      -578.5
    RHS1      R120      -563.5
    RHS1      R121      -567.5
    RHS1      R122      -567.5
    RHS1      R123      -565.5
    RHS1      R124      -570.5
    RHS1      R125      -570.5
    RHS1      R126      -571.5
    RHS1      R127      504.5
    RHS1      R128      517.4
    RHS1      R129      -530.5
    RHS1      R130      -517.6
    RHS1      R131      119.9
    RHS1      R132      119.9
    RHS1      R133      149.9
    RHS1      R134      149.9
    RHS1      R135      120
    RHS1      R136      150
    RHS1      R137      6.3333333333333336e+01
    RHS1      R138      6.8399999999999991e+01
    RHS1      R139      207
    RHS1      R148      4
BOUNDS
 BV BND1      x_kimjn[0,1,0,1,0]
 BV BND1      x_kimjn[0,1,0,2,2]
 BV BND1      x_kimjn[0,1,0,2,9]
 BV BND1      x_kimjn[0,1,0,2,12]
 BV BND1      x_kimjn[0,1,0,2,22]
 BV BND1      x_kimjn[0,1,0,2,6]
 BV BND1      x_kimjn[0,1,0,2,7]
 BV BND1      x_kimjn[0,1,0,2,0]
 BV BND1      x_kimjn[0,1,0,3,0]
 BV BND1      x_kimjn[0,1,0,4,0]
 BV BND1      x_kimjn[0,2,2,1,0]
 BV BND1      x_kimjn[0,2,2,2,2]
 BV BND1      x_kimjn[0,2,2,2,9]
 BV BND1      x_kimjn[0,2,2,2,12]
 BV BND1      x_kimjn[0,2,2,2,22]
 BV BND1      x_kimjn[0,2,2,2,6]
 BV BND1      x_kimjn[0,2,2,2,7]
 BV BND1      x_kimjn[0,2,2,2,0]
 BV BND1      x_kimjn[0,2,2,3,0]
 BV BND1      x_kimjn[0,2,2,4,0]
 BV BND1      x_kimjn[0,2,9,1,0]
 BV BND1      x_kimjn[0,2,9,2,2]
 BV BND1      x_kimjn[0,2,9,2,9]
 BV BND1      x_kimjn[0,2,9,2,12]
 BV BND1      x_kimjn[0,2,9,2,22]
 BV BND1      x_kimjn[0,2,9,2,6]
 BV BND1      x_kimjn[0,2,9,2,7]
 BV BND1      x_kimjn[0,2,9,2,0]
 BV BND1      x_kimjn[0,2,9,3,0]
 BV BND1      x_kimjn[0,2,9,4,0]
 BV BND1      x_kimjn[0,2,12,1,0]
 BV BND1      x_kimjn[0,2,12,2,2]
 BV BND1      x_kimjn[0,2,12,2,9]
 BV BND1      x_kimjn[0,2,12,2,12]
 BV BND1      x_kimjn[0,2,12,2,22]
 BV BND1      x_kimjn[0,2,12,2,6]
 BV BND1      x_kimjn[0,2,12,2,7]
 BV BND1      x_kimjn[0,2,12,2,0]
 BV BND1      x_kimjn[0,2,12,3,0]
 BV BND1      x_kimjn[0,2,12,4,0]
 BV BND1      x_kimjn[0,2,22,1,0]
 BV BND1      x_kimjn[0,2,22,2,2]
 BV BND1      x_kimjn[0,2,22,2,9]
 BV BND1      x_kimjn[0,2,22,2,12]
 BV BND1      x_kimjn[0,2,22,2,22]
 BV BND1      x_kimjn[0,2,22,2,6]
 BV BND1      x_kimjn[0,2,22,2,7]
 BV BND1      x_kimjn[0,2,22,2,0]
 BV BND1      x_kimjn[0,2,22,3,0]
 BV BND1      x_kimjn[0,2,22,4,0]
 BV BND1      x_kimjn[0,2,6,1,0]
 BV BND1      x_kimjn[0,2,6,2,2]
 BV BND1      x_kimjn[0,2,6,2,9]
 BV BND1      x_kimjn[0,2,6,2,12]
 BV BND1      x_kimjn[0,2,6,2,22]
 BV BND1      x_kimjn[0,2,6,2,6]
 BV BND1      x_kimjn[0,2,6,2,7]
 BV BND1      x_kimjn[0,2,6,2,0]
 BV BND1      x_kimjn[0,2,6,3,0]
 BV BND1      x_kimjn[0,2,6,4,0]
 BV BND1      x_kimjn[0,2,7,1,0]
 BV BND1      x_kimjn[0,2,7,2,2]
 BV BND1      x_kimjn[0,2,7,2,9]
 BV BND1      x_kimjn[0,2,7,2,12]
 BV BND1      x_kimjn[0,2,7,2,22]
 BV BND1      x_kimjn[0,2,7,2,6]
 BV BND1      x_kimjn[0,2,7,2,7]
 BV BND1      x_kimjn[0,2,7,2,0]
 BV BND1      x_kimjn[0,2,7,3,0]
 BV BND1      x_kimjn[0,2,7,4,0]
 BV BND1      x_kimjn[0,2,0,1,0]
 BV BND1      x_kimjn[0,2,0,2,2]
 BV BND1      x_kimjn[0,2,0,2,9]
 BV BND1      x_kimjn[0,2,0,2,12]
 BV BND1      x_kimjn[0,2,0,2,22]
 BV BND1      x_kimjn[0,2,0,2,6]
 BV BND1      x_kimjn[0,2,0,2,7]
 BV BND1      x_kimjn[0,2,0,2,0]
 BV BND1      x_kimjn[0,2,0,3,0]
 BV BND1      x_kimjn[0,2,0,4,0]
 BV BND1      x_kimjn[0,3,0,1,0]
 BV BND1      x_kimjn[0,3,0,2,2]
 BV BND1      x_kimjn[0,3,0,2,9]
 BV BND1      x_kimjn[0,3,0,2,12]
 BV BND1      x_kimjn[0,3,0,2,22]
 BV BND1      x_kimjn[0,3,0,2,6]
 BV BND1      x_kimjn[0,3,0,2,7]
 BV BND1      x_kimjn[0,3,0,2,0]
 BV BND1      x_kimjn[0,3,0,3,0]
 BV BND1      x_kimjn[0,3,0,4,0]
 BV BND1      x_kimjn[0,4,0,1,0]
 BV BND1      x_kimjn[0,4,0,2,2]
 BV BND1      x_kimjn[0,4,0,2,9]
 BV BND1      x_kimjn[0,4,0,2,12]
 BV BND1      x_kimjn[0,4,0,2,22]
 BV BND1      x_kimjn[0,4,0,2,6]
 BV BND1      x_kimjn[0,4,0,2,7]
 BV BND1      x_kimjn[0,4,0,2,0]
 BV BND1      x_kimjn[0,4,0,3,0]
 BV BND1      x_kimjn[0,4,0,4,0]
 BV BND1      xs_kim[0,1,0]
 BV BND1      xs_kim[0,2,2]
 BV BND1      xs_kim[0,2,9]
 BV BND1      xs_kim[0,2,12]
 BV BND1      xs_kim[0,2,22]
 BV BND1      xs_kim[0,2,6]
 BV BND1      xs_kim[0,2,7]
 BV BND1      xs_kim[0,2,0]
 BV BND1      xe_kjn[0,3,0]
 BV BND1      xe_kjn[0,4,0]
 BV BND1      xod_k[0]
 BV BND1      y_kim[0,1,0]
 BV BND1      y_kim[0,2,2]
 BV BND1      y_kim[0,2,9]
 BV BND1      y_kim[0,2,12]
 BV BND1      y_kim[0,2,22]
 BV BND1      y_kim[0,2,6]
 BV BND1      y_kim[0,2,7]
 BV BND1      y_kim[0,2,0]
 BV BND1      y_kim[0,3,0]
 BV BND1      y_kim[0,4,0]
 BV BND1      z_ki[0,1]
 BV BND1      z_ki[0,2]
ENDATA
