model.ilp
\ Model RRP_copy
\ LP format - for model browsing. Use MPS format to capture full model detail.
Maximize
 
Subject To
 ny2: x_kimjn[0,1,0,2,0] = 1
 4.13[0,1]: 2 x_kimjn[0,1,0,2,0] = 0
Bounds
Binaries
 x_kimjn[0,1,0,2,0]
End
